benchmarks/find_max_three/medium.solution
Problem: find_max_three
Difficulty: medium
Status: cegis_success
Iterations: 18
Counterexamples: 18
Solution: ifelse(y < x, x, y)
